0 1 129.0
0 2 83.0
0 3 84.0
0 4 57.0
0 5 97.0
0 6 91.0
0 7 62.0
0 8 102.0
0 9 108.0
0 10 98.0
0 11 34.0
0 12 17.0
0 13 110.0
0 14 68.0
0 15 88.0
0 16 126.0
0 17 59.0
0 18 79.0
0 19 159.0
0 20 76.0
0 21 113.0
0 22 99.0
0 23 28.0
0 24 211.0
0 25 116.0
0 26 65.0
0 27 64.0
0 28 96.0
0 29 118.0
1 2 186.0
1 3 169.0
1 4 176.0
1 5 117.0
1 6 182.0
1 7 153.0
1 8 193.0
1 9 128.0
1 10 116.0
1 11 95.0
1 12 146.0
1 13 111.0
1 14 99.0
1 15 165.0
1 16 157.0
1 17 156.0
1 18 174.0
1 19 277.0
1 20 205.0
1 21 176.0
1 22 119.0
1 23 157.0
1 24 283.0
1 25 173.0
1 26 194.0
1 27 151.0
1 28 127.0
1 29 96.0
2 3 123.0
2 4 140.0
2 5 71.0
2 6 136.0
2 7 107.0
2 8 147.0
2 9 82.0
2 10 70.0
2 11 117.0
2 12 100.0
2 13 105.0
2 14 151.0
2 15 159.0
2 16 206.0
2 17 110.0
2 18 128.0
2 19 227.0
2 20 148.0
2 21 141.0
2 22 73.0
2 23 55.0
2 24 277.0
2 25 138.0
2 26 148.0
2 27 105.0
2 28 179.0
2 29 90.0
3 4 27.0
3 5 54.0
3 6 95.0
3 7 66.0
3 8 106.0
3 9 65.0
3 10 53.0
3 11 117.0
3 12 101.0
3 13 88.0
3 14 107.0
3 15 142.0
3 16 165.0
3 17 69.0
3 18 5.0
3 19 190.0
3 20 160.0
3 21 58.0
3 22 56.0
3 23 112.0
3 24 260.0
3 25 55.0
3 26 149.0
3 27 68.0
3 28 79.0
3 29 73.0
4 5 81.0
4 6 122.0
4 7 93.0
4 8 133.0
4 9 92.0
4 10 80.0
4 11 91.0
4 12 74.0
4 13 95.0
4 14 124.0
4 15 145.0
4 16 182.0
4 17 96.0
4 18 22.0
4 19 216.0
4 20 133.0
4 21 85.0
4 22 83.0
4 23 85.0
4 24 267.0
4 25 82.0
4 26 122.0
4 27 95.0
4 28 96.0
4 29 80.0
5 6 65.0
5 7 36.0
5 8 76.0
5 9 11.0
5 10 1.0
5 11 63.0
5 12 114.0
5 13 36.0
5 14 161.0
5 15 90.0
5 16 135.0
5 17 39.0
5 18 59.0
5 19 160.0
5 20 173.0
5 21 70.0
5 22 2.0
5 23 118.0
5 24 208.0
5 25 67.0
5 26 120.0
5 27 34.0
5 28 133.0
5 29 21.0
6 7 29.0
6 8 69.0
6 9 76.0
6 10 66.0
6 11 125.0
6 12 108.0
6 13 101.0
6 14 159.0
6 15 155.0
6 16 200.0
6 17 32.0
6 18 100.0
6 19 153.0
6 20 167.0
6 21 135.0
6 22 67.0
6 23 119.0
6 24 273.0
6 25 132.0
6 26 156.0
6 27 31.0
6 28 174.0
6 29 86.0
7 8 40.0
7 9 47.0
7 10 37.0
7 11 96.0
7 12 79.0
7 13 72.0
7 14 130.0
7 15 126.0
7 16 171.0
7 17 3.0
7 18 71.0
7 19 124.0
7 20 138.0
7 21 106.0
7 22 38.0
7 23 90.0
7 24 244.0
7 25 103.0
7 26 127.0
7 27 2.0
7 28 145.0
7 29 57.0
8 9 87.0
8 10 77.0
8 11 136.0
8 12 119.0
8 13 112.0
8 14 170.0
8 15 166.0
8 16 211.0
8 17 43.0
8 18 111.0
8 19 164.0
8 20 178.0
8 21 137.0
8 22 78.0
8 23 130.0
8 24 284.0
8 25 134.0
8 26 123.0
8 27 42.0
8 28 185.0
8 29 97.0
9 10 12.0
9 11 74.0
9 12 125.0
9 13 47.0
9 14 155.0
9 15 101.0
9 16 142.0
9 17 50.0
9 18 70.0
9 19 171.0
9 20 184.0
9 21 59.0
9 22 9.0
9 23 129.0
9 24 219.0
9 25 56.0
9 26 127.0
9 27 45.0
9 28 127.0
9 29 32.0
10 11 64.0
10 12 115.0
10 13 35.0
10 14 160.0
10 15 89.0
10 16 136.0
10 17 40.0
10 18 58.0
10 19 161.0
10 20 174.0
10 21 71.0
10 22 3.0
10 23 117.0
10 24 207.0
10 25 68.0
10 26 121.0
10 27 35.0
10 28 132.0
10 29 20.0
11 12 51.0
11 13 99.0
11 14 102.0
11 15 122.0
11 16 160.0
11 17 93.0
11 18 113.0
11 19 193.0
11 20 110.0
11 21 133.0
11 22 65.0
11 23 62.0
11 24 196.0
11 25 130.0
11 26 99.0
11 27 97.0
11 28 130.0
11 29 84.0
12 13 127.0
12 14 85.0
12 15 105.0
12 16 143.0
12 17 76.0
12 18 96.0
12 19 176.0
12 20 93.0
12 21 96.0
12 22 116.0
12 23 45.0
12 24 228.0
12 25 99.0
12 26 48.0
12 27 81.0
12 28 112.0
12 29 135.0
13 14 171.0
13 15 84.0
13 16 135.0
13 17 75.0
13 18 93.0
13 19 196.0
13 20 175.0
13 21 65.0
13 22 38.0
13 23 82.0
13 24 202.0
13 25 62.0
13 26 156.0
13 27 70.0
13 28 167.0
13 29 15.0
14 15 109.0
14 16 58.0
14 17 127.0
14 18 102.0
14 19 227.0
14 20 144.0
14 21 112.0
14 22 163.0
14 23 96.0
14 24 243.0
14 25 109.0
14 26 133.0
14 27 132.0
14 28 28.0
14 29 178.0
15 16 51.0
15 17 129.0
15 18 147.0
15 19 247.0
15 20 164.0
15 21 149.0
15 22 92.0
15 23 116.0
15 24 256.0
15 25 146.0
15 26 153.0
15 27 124.0
15 28 137.0
15 29 69.0
16 17 174.0
16 18 160.0
16 19 285.0
16 20 202.0
16 21 142.0
16 22 133.0
16 23 154.0
16 24 301.0
16 25 145.0
16 26 191.0
16 27 169.0
16 28 86.0
16 29 120.0
17 18 74.0
17 19 121.0
17 20 135.0
17 21 109.0
17 22 41.0
17 23 87.0
17 24 247.0
17 25 106.0
17 26 124.0
17 27 5.0
17 28 148.0
17 29 60.0
18 19 195.0
18 20 155.0
18 21 63.0
18 22 61.0
18 23 107.0
18 24 265.0
18 25 60.0
18 26 144.0
18 27 73.0
18 28 74.0
18 29 78.0
19 20 235.0
19 21 230.0
19 22 162.0
19 23 172.0
19 24 366.0
19 25 227.0
19 26 145.0
19 27 126.0
19 28 255.0
19 29 181.0
20 21 189.0
20 22 175.0
20 23 93.0
20 24 287.0
20 25 192.0
20 26 141.0
20 27 140.0
20 28 172.0
20 29 190.0
21 22 68.0
21 23 141.0
21 24 267.0
21 25 3.0
21 26 144.0
21 27 104.0
21 28 137.0
21 29 80.0
22 23 120.0
22 24 210.0
22 25 65.0
22 26 118.0
22 27 36.0
22 28 135.0
22 29 23.0
23 24 239.0
23 25 144.0
23 26 93.0
23 27 92.0
23 28 124.0
23 29 97.0
24 25 264.0
24 26 276.0
24 27 242.0
24 28 215.0
24 29 187.0
25 26 147.0
25 27 101.0
25 28 134.0
25 29 77.0
26 27 129.0
26 28 154.0
26 29 141.0
27 28 147.0
27 29 55.0
28 29 152.0
